8189
50, 20, 23, 1, 32, 45, 19, 41, 8, 9, 10, 33, 43, 15, 38, 37, 40, 39, 36, 35, 44, 16, 29, 47, 26, 28, 27, 13, 14, 52, 11, 51, 12, 25, 4, 6, 5, 24, 48, 46, 34, 49, 22, 31, 18, 3, 17, 21, 42, 7, 2, 30
